NAME : block_12.559657.tour
COMMENT : Length = 559657
COMMENT : Found by LKH-3 [Keld Helsgaun] Wed Apr 22 15:45:20 2026
TYPE : TOUR
DIMENSION : 160
TOUR_SECTION
75
95
96
76
57
38
24
13
14
25
39
58
77
97
98
78
59
40
26
15
16
27
41
60
79
99
80
61
42
28
2
160
1
29
44
43
62
82
81
100
101
109
115
120
125
130
135
140
144
148
152
156
157
153
149
145
141
136
131
126
127
122
121
116
117
111
110
102
103
84
83
63
64
45
30
17
9
6
10
18
31
46
65
85
104
112
118
123
128
133
132
137
142
146
150
154
158
159
155
151
147
143
138
139
134
129
124
119
113
114
106
105
86
66
47
32
19
11
7
4
3
5
8
12
20
33
48
67
87
88
68
49
50
69
89
90
70
51
52
71
91
92
72
53
34
21
35
54
73
93
107
108
94
74
55
36
22
23
37
56
-1
EOF
